unsat
(define-fun f ((x (_ BitVec 64))) (_ BitVec 64) (let ((_let_1 (smol #b0000000000000000000000000000000000000000000000000000000000000001))) (im (bvand #b0000000000000000000000000000000000000000000000000000000000000001 x) (bvnot _let_1) _let_1)))
0.02user 0.00system 0:00.02elapsed 96%CPU (0avgtext+0avgdata 25704maxresident)k
8inputs+8outputs (0major+1108minor)pagefaults 0swaps
